Read MPS format model from file dat/rmp/DER_96_4096_10.mps
Reading time = 0.27 seconds
: 4192 rows, 9504 columns, 799242 nonzeros
Gurobi Optimizer version 9.0.0 build v9.0.0rc2 (linux64)
Optimize a model with 4192 rows, 9504 columns and 799242 nonzeros
Model fingerprint: 0x38becefa
Coefficient statistics:
  Matrix range     [1e-04, 1e+01]
  Objective range  [8e-01, 1e+03]
  Bounds range     [2e+04, 2e+04]
  RHS range        [1e+00, 1e+00]
Ordering time: 0.01s

Barrier statistics:
 AA' NZ     : 3.669e+05
 Factor NZ  : 4.108e+05 (roughly 9 MBytes of memory)
 Factor Ops : 4.270e+07 (less than 1 second per iteration)
 Threads    : 1

                  Objective                Residual
Iter       Primal          Dual         Primal    Dual     Compl     Time
   0   1.86727356e+09 -3.26809436e+08  4.56e+06 2.25e-02  1.48e+06     0s
   1   6.19643751e+07 -5.86951945e+07  1.26e+05 2.73e-12  4.65e+04     0s
   2   5.10670218e+06 -1.57312765e+07  9.25e+03 3.64e-12  4.67e+03     0s
   3   5.89623855e+05 -7.39641536e+06  9.88e+02 3.64e-12  1.04e+03     0s
   4   4.17250012e+04 -9.08931660e+05  5.43e+00 2.73e-12  9.93e+01     0s
   5   2.90403170e+04  2.48491228e+04  9.22e-11 3.64e-12  4.37e-01     0s
   6   2.88719125e+04  2.82412841e+04  8.61e-11 3.64e-12  6.57e-02     1s
   7   2.86814138e+04  2.84770015e+04  1.35e-10 1.82e-12  2.13e-02     1s
   8   2.86429900e+04  2.85198206e+04  2.43e-10 3.64e-12  1.28e-02     1s
   9   2.86253123e+04  2.85531246e+04  5.04e-10 1.82e-12  7.52e-03     1s
  10   2.86188585e+04  2.85754064e+04  6.30e-10 1.82e-12  4.53e-03     1s
  11   2.86166531e+04  2.85865765e+04  6.00e-10 1.82e-12  3.13e-03     1s
  12   2.86111965e+04  2.85944782e+04  1.04e-09 2.73e-12  1.74e-03     1s
  13   2.86092755e+04  2.85977469e+04  9.81e-10 1.82e-12  1.20e-03     1s
  14   2.86078039e+04  2.86000034e+04  1.57e-09 1.82e-12  8.13e-04     1s
  15   2.86068819e+04  2.86008588e+04  1.38e-09 1.82e-12  6.27e-04     1s
  16   2.86063422e+04  2.86016056e+04  1.08e-09 1.82e-12  4.93e-04     1s
  17   2.86057293e+04  2.86024421e+04  9.54e-10 3.64e-12  3.42e-04     1s
  18   2.86043324e+04  2.86030758e+04  2.32e-09 1.82e-12  1.31e-04     1s
  19   2.86039695e+04  2.86032742e+04  2.06e-09 1.82e-12  7.24e-05     1s
  20   2.86037348e+04  2.86034628e+04  2.33e-09 1.82e-12  2.83e-05     1s
  21   2.86036165e+04  2.86035006e+04  1.97e-09 1.82e-12  1.21e-05     2s
  22   2.86035232e+04  2.86035132e+04  6.48e-09 2.73e-12  1.04e-06     2s
  23   2.86035168e+04  2.86035166e+04  1.08e-08 1.82e-12  1.83e-08     2s
  24   2.86035167e+04  2.86035167e+04  6.33e-08 1.82e-12  1.28e-10     2s

Barrier solved model in 24 iterations and 1.70 seconds
Optimal objective 2.86035167e+04

Solve time: 1.7061404
Barrier iterations: 24
